6 48 4 10
18 19 10 3 8 3 10 16 6 8 7 10 8 13 1 5 7 19 20 20 20 20 20 2 6 7 12 19 9 15 7 9 19 12 12 14 14 11 9 10 18 16 20 3 15 15 7 1 
2.62 1.08 0.86 2.99 6.89 6.75 6.86 2.79 3.56 2.84 3.65 3.32 1.2 5.5 4.29 6.49 7.17 4.88 1.13 3.37 2.17 1.05 5.64 3.15 7.8 3.23 7.52 0.24 2.07 2.72 7.87 4.34 2.42 2.25 7.94 4.28 2.54 2.37 2.5 6.45 0.21 1.62 5.89 4.86 7.93 0.51 1.31 2.52 
6.84 0.36 3.34 6.09 4.92 3.99 7.09 2.63 0.31 5.09 4.8 3.11 5.97 0.91 7.67 0.14 6.85 5.52 4.49 4.87 7.18 4.45 3.88 7.24 0.13 7.21 1.6 6.41 5.13 0.08 0.87 1.39 1.14 3.72 0.07 7.81 0.76 0.69 0.5 0.65 1.52 2.76 1.09 2.86 4.25 4.07 4.54 4.08 
1.21 2.3 6.77 3.52 6.08 2.66 6.98 3.18 7.86 5.57 7.01 6.43 7.57 1.72 0.56 5.51 1.09 7.58 0.83 2.18 5.5 4.64 2.73 5.32 0.27 3.92 4.6 2.05 7.77 1.44 2.91 7.46 6.84 3.58 4.7 7.76 7.32 2.76 2.48 5.58 2.84 2.64 0.22 1.3 2.65 6.82 2.84 0.22 
2 2.29 0.58 1.7 1.94 7.88 0.56 3.3 1.71 7.76 2.28 7.65 4.5 2.68 2.25 7.21 4.97 5.59 3.43 4.63 0.31 7.06 0.26 0.17 2.9 6.48 5.86 6.79 1.52 4.74 6.38 0.65 0.16 2.7 6.95 6.08 2.57 6.01 1.49 2.03 6.73 0.14 4.84 0.09 3.09 1.4 0.12 1.99 
4 4 4 4 4 4 4 4 4 4 4 4 4 4 4 4 4 4 4 4 4 4 4 4 4 4 4 4 4 4 4 4 4 4 4 4 4 4 4 4 4 4 4 4 4 4 4 4 
5.11 3.72 4.24 7.87 3.8 6.18 4.31 6.24 0.69 5.08 4.37 6.29 3.64 3.75 0.66 6.9 5.63 0.69 0.39 7.2 3.89 4.34 0.75 7.72 6.96 1.91 5.17 0.25 3.47 0.94 5.93 7.04 3.3 4.52 3.9 7.15 1.75 0.03 1.43 1.64 1.19 7.69 1.88 1.71 5.11 6.13 1.46 0.27 
1 1 1 1 1 1 1 1 1 1 1 1 1 1 1 1 1 1 1 1 1 1 1 1 1 1 1 1 1 1 1 1 1 1 1 1 1 1 1 1 1 1 1 1 1 1 1 1 
1 1 1 1 1 1 1 1 1 1 1 1 1 1 1 1 1 1 1 1 1 1 1 1 1 1 1 1 1 1 1 1 1 1 1 1 1 1 1 1 1 1 1 1 1 1 1 1 
1 1 1 1 1 1 1 1 1 1 1 1 1 1 1 1 1 1 1 1 1 1 1 1 1 1 1 1 1 1 1 1 1 1 1 1 1 1 1 1 1 1 1 1 1 1 1 1 
1 1 1 1 1 1 1 1 1 1 1 1 1 1 1 1 1 1 1 1 1 1 1 1 1 1 1 1 1 1 1 1 1 1 1 1 1 1 1 1 1 1 1 1 1 1 1 1 
1 1 1 1 1 1 1 1 1 1 1 1 1 1 1 1 1 1 1 1 1 1 1 1 1 1 1 1 1 1 1 1 1 1 1 1 1 1 1 1 1 1 1 1 1 1 1 1 
1 1 1 1 1 1 1 1 1 1 1 1 1 1 1 1 1 1 1 1 1 1 1 1 1 1 1 1 1 1 1 1 1 1 1 1 1 1 1 1 1 1 1 1 1 1 1 1 
0.01 0.01 0.01 0.01 0.01 0.01 0.01 0.01 0.01 0.01 0.01 0.01 0.01 0.01 0.01 0.01 0.01 0.01 0.01 0.01 0.01 0.01 0.01 0.01 0.01 0.01 0.01 0.01 0.01 0.01 0.01 0.01 0.01 0.01 0.01 0.01 0.01 0.01 0.01 0.01 0.01 0.01 0.01 0.01 0.01 0.01 0.01 0.01 
0.02 0.02 0.02 0.02 0.02 0.02 0.02 0.02 0.02 0.02 0.02 0.02 0.02 0.02 0.02 0.02 0.02 0.02 0.02 0.02 0.02 0.02 0.02 0.02 0.02 0.02 0.02 0.02 0.02 0.02 0.02 0.02 0.02 0.02 0.02 0.02 0.02 0.02 0.02 0.02 0.02 0.02 0.02 0.02 0.02 0.02 0.02 0.02 
0.03 0.03 0.03 0.03 0.03 0.03 0.03 0.03 0.03 0.03 0.03 0.03 0.03 0.03 0.03 0.03 0.03 0.03 0.03 0.03 0.03 0.03 0.03 0.03 0.03 0.03 0.03 0.03 0.03 0.03 0.03 0.03 0.03 0.03 0.03 0.03 0.03 0.03 0.03 0.03 0.03 0.03 0.03 0.03 0.03 0.03 0.03 0.03 
0.04 0.04 0.04 0.04 0.04 0.04 0.04 0.04 0.04 0.04 0.04 0.04 0.04 0.04 0.04 0.04 0.04 0.04 0.04 0.04 0.04 0.04 0.04 0.04 0.04 0.04 0.04 0.04 0.04 0.04 0.04 0.04 0.04 0.04 0.04 0.04 0.04 0.04 0.04 0.04 0.04 0.04 0.04 0.04 0.04 0.04 0.04 0.04 
0.05 0.05 0.05 0.05 0.05 0.05 0.05 0.05 0.05 0.05 0.05 0.05 0.05 0.05 0.05 0.05 0.05 0.05 0.05 0.05 0.05 0.05 0.05 0.05 0.05 0.05 0.05 0.05 0.05 0.05 0.05 0.05 0.05 0.05 0.05 0.05 0.05 0.05 0.05 0.05 0.05 0.05 0.05 0.05 0.05 0.05 0.05 0.05 
1 1 1 1 1 1 1 1 1 1 1 1 1 1 1 1 1 1 1 1 1 1 1 1 1 1 1 1 1 1 1 1 1 1 1 1 1 1 1 1 1 1 1 1 1 1 1 1 
